Nodes = {"N1", "N2", "N3", "N4", "N5", "N6", "N7", "N8", "N9", "N10", "N11"};
Arcs = {<"N1","N2",28,4>, <"N1","N3",28,5>, <"N1","N4",28,5>, <"N1","N5",28,5>, <"N1","N6",28,4>, <"N1","N7",28,0>, <"N1","N8",28,0>, <"N1","N9",28,0>, <"N1","N10",28,0>, <"N1","N11",28,4>, <"N2","N1",28,4>, <"N2","N3",28,0>, <"N2","N4",28,0>, <"N2","N5",28,0>, <"N2","N6",28,0>, <"N2","N7",28,5>, <"N2","N8",28,0>, <"N2","N9",28,0>, <"N2","N10",28,0>, <"N2","N11",28,0>, <"N3","N1",28,5>, <"N3","N2",28,0>, <"N3","N4",28,0>, <"N3","N5",28,0>, <"N3","N6",28,0>, <"N3","N7",28,6>, <"N3","N8",28,5>, <"N3","N9",28,3>, <"N3","N10",28,0>, <"N3","N11",28,0>, <"N4","N1",28,5>, <"N4","N2",28,0>, <"N4","N3",28,0>, <"N4","N5",28,0>, <"N4","N6",28,0>, <"N4","N7",28,6>, <"N4","N8",28,4>, <"N4","N9",28,4>, <"N4","N10",28,4>, <"N4","N11",28,3>, <"N5","N1",28,5>, <"N5","N2",28,0>, <"N5","N3",28,0>, <"N5","N4",28,0>, <"N5","N6",28,0>, <"N5","N7",28,0>, <"N5","N8",28,0>, <"N5","N9",28,5>, <"N5","N10",28,6>, <"N5","N11",28,5>, <"N6","N1",28,4>, <"N6","N2",28,0>, <"N6","N3",28,0>, <"N6","N4",28,0>, <"N6","N5",28,0>, <"N6","N7",28,4>, <"N6","N8",28,0>, <"N6","N9",28,0>, <"N6","N10",28,5>, <"N6","N11",28,5>, <"N7","N1",28,0>, <"N7","N2",28,5>, <"N7","N3",28,6>, <"N7","N4",28,6>, <"N7","N5",28,0>, <"N7","N6",28,4>, <"N7","N8",28,0>, <"N7","N9",28,0>, <"N7","N10",28,0>, <"N7","N11",28,0>, <"N8","N1",28,0>, <"N8","N2",28,0>, <"N8","N3",28,5>, <"N8","N4",28,4>, <"N8","N5",28,0>, <"N8","N6",28,0>, <"N8","N7",28,0>, <"N8","N9",28,0>, <"N8","N10",28,0>, <"N8","N11",28,0>, <"N9","N1",28,0>, <"N9","N2",28,0>, <"N9","N3",28,3>, <"N9","N4",28,4>, <"N9","N5",28,5>, <"N9","N6",28,0>, <"N9","N7",28,0>, <"N9","N8",28,0>, <"N9","N10",28,0>, <"N9","N11",28,0>, <"N10","N1",28,0>, <"N10","N2",28,0>, <"N10","N3",28,0>, <"N10","N4",28,4>, <"N10","N5",28,6>, <"N10","N6",28,5>, <"N10","N7",28,0>, <"N10","N8",28,0>, <"N10","N9",28,0>, <"N10","N11",28,0>, <"N11","N1",28,4>, <"N11","N2",28,0>, <"N11","N3",28,0>, <"N11","N4",28,3>, <"N11","N5",28,5>, <"N11","N6",28,5>, <"N11","N7",28,0>, <"N11","N8",28,0>, <"N11","N9",28,0>, <"N11","N10",28,0>};
Demands = {<"N1","N2",2,0>, <"N1","N3",4,0>, <"N1","N4",6,0>, <"N1","N5",8,0>, <"N1","N6",10,0>, <"N1","N7",12,0>, <"N1","N8",14,1>, <"N1","N9",16,0>, <"N1","N10",18,0>, <"N1","N11",20,0>, <"N2","N1",2,0>, <"N2","N3",2,0>, <"N2","N4",4,0>, <"N2","N5",6,0>, <"N2","N6",8,0>, <"N2","N7",10,0>, <"N2","N8",12,0>, <"N2","N9",14,0>, <"N2","N10",16,0>, <"N2","N11",18,1>, <"N3","N1",4,0>, <"N3","N2",2,0>, <"N3","N4",2,0>, <"N3","N5",4,0>, <"N3","N6",6,0>, <"N3","N7",8,0>, <"N3","N8",10,0>, <"N3","N9",12,1>, <"N3","N10",14,0>, <"N3","N11",16,0>, <"N4","N1",6,0>, <"N4","N2",4,0>, <"N4","N3",2,0>, <"N4","N5",2,1>, <"N4","N6",4,0>, <"N4","N7",6,0>, <"N4","N8",8,0>, <"N4","N9",10,0>, <"N4","N10",12,0>, <"N4","N11",14,0>, <"N5","N1",8,0>, <"N5","N2",6,0>, <"N5","N3",4,0>, <"N5","N4",2,0>, <"N5","N6",2,0>, <"N5","N7",4,0>, <"N5","N8",6,0>, <"N5","N9",8,0>, <"N5","N10",10,0>, <"N5","N11",12,0>, <"N6","N1",10,0>, <"N6","N2",8,0>, <"N6","N3",6,0>, <"N6","N4",4,0>, <"N6","N5",2,0>, <"N6","N7",2,0>, <"N6","N8",4,0>, <"N6","N9",6,0>, <"N6","N10",8,0>, <"N6","N11",10,0>, <"N7","N1",12,0>, <"N7","N2",10,0>, <"N7","N3",8,0>, <"N7","N4",6,0>, <"N7","N5",4,0>, <"N7","N6",2,0>, <"N7","N8",2,0>, <"N7","N9",4,0>, <"N7","N10",6,0>, <"N7","N11",8,0>, <"N8","N1",14,0>, <"N8","N2",12,0>, <"N8","N3",10,0>, <"N8","N4",8,0>, <"N8","N5",6,0>, <"N8","N6",4,0>, <"N8","N7",2,0>, <"N8","N9",2,0>, <"N8","N10",4,0>, <"N8","N11",6,0>, <"N9","N1",16,0>, <"N9","N2",14,0>, <"N9","N3",12,0>, <"N9","N4",10,0>, <"N9","N5",8,0>, <"N9","N6",6,0>, <"N9","N7",4,0>, <"N9","N8",2,0>, <"N9","N10",2,0>, <"N9","N11",4,0>, <"N10","N1",18,0>, <"N10","N2",16,0>, <"N10","N3",14,0>, <"N10","N4",12,0>, <"N10","N5",10,0>, <"N10","N6",8,0>, <"N10","N7",6,0>, <"N10","N8",4,0>, <"N10","N9",2,0>, <"N10","N11",2,0>, <"N11","N1",20,0>, <"N11","N2",18,0>, <"N11","N3",16,0>, <"N11","N4",14,0>, <"N11","N5",12,0>, <"N11","N6",10,0>, <"N11","N7",8,0>, <"N11","N8",6,0>, <"N11","N9",4,0>, <"N11","N10",2,0>, <"N3","N9",12,1>, <"N4","N5",2,1>, <"N2","N11",18,1>, <"N1","N8",14,1>};
